NAME : problems/30-tsp/instance-31.tsp
COMMENT : No Comment
TYPE : TSP
DIMENSION: 30
EDGE_WEIGHT_TYPE : EUC_2D
NODE_COORD_SECTION
1 969 7939 
2 4995 1758 
3 1043 4857 
4 8816 7221 
5 6118 5751 
6 8799 4404 
7 2846 8423 
8 6245 3683 
9 9033 1216 
10 7363 1655 
11 7165 9844 
12 617 1027 
13 5949 6229 
14 2940 1428 
15 546 4485 
16 3972 1204 
17 4559 6693 
18 7189 915 
19 6670 9189 
20 2173 3988 
21 5200 7445 
22 3222 6173 
23 708 7352 
24 2420 4325 
25 4373 5105 
26 4114 6571 
27 260 7567 
28 4184 9594 
29 9005 1330 
30 5017 9481 
EOF
